data/CVRPLIB/Vrp-Set-XML100/instances/XML100_2314_03.vrp
NAME : XML100_2314_03
COMMENT : Generated by Queiroga, Sadykov, Uchoa, and Vidal (2021)
TYPE : CVRP
DIMENSION : 101
EDGE_WEIGHT_TYPE : EUC_2D
CAPACITY : 13
NODE_COORD_SECTION
1    500  500 
2    867  303 
3    637  861 
4    924  875 
5    599  892 
6    428  556 
7    475  19  
8    984  622 
9    817  889 
10   851  938 
11   13   405 
12   752  869 
13   114  761 
14   709  363 
15   561  32  
16   697  506 
17   566  347 
18   202  14  
19   791  423 
20   199  533 
21   488  74  
22   503  521 
23   561  725 
24   599  396 
25   729  195 
26   507  60  
27   456  800 
28   370  123 
29   410  869 
30   491  279 
31   691  746 
32   436  287 
33   463  119 
34   598  764 
35   607  913 
36   498  82  
37   851  404 
38   493  130 
39   545  913 
40   663  514 
41   308  41  
42   971  281 
43   824  318 
44   438  28  
45   771  345 
46   749  301 
47   807  259 
48   180  917 
49   333  21  
50   107  646 
51   604  856 
52   641  857 
53   837  299 
54   437  92  
55   822  388 
56   525  947 
57   319  255 
58   879  827 
59   116  633 
60   539  814 
61   255  517 
62   58   517 
63   496  53  
64   567  865 
65   739  272 
66   582  787 
67   165  777 
68   843  403 
69   809  249 
70   586  929 
71   971  949 
72   373  430 
73   244  407 
74   315  25  
75   128  173 
76   152  858 
77   535  821 
78   529  155 
79   318  536 
80   421  40  
81   879  126 
82   306  708 
83   218  41  
84   489  857 
85   585  957 
86   366  66  
87   610  804 
88   787  370 
89   388  834 
90   828  378 
91   681  150 
92   780  421 
93   686  596 
94   602  915 
95   581  867 
96   668  470 
97   791  385 
98   758  619 
99   773  321 
100  705  417 
101  304  569 
DEMAND_SECTION
1    0   
2    1   
3    1   
4    1   
5    1   
6    1   
7    1   
8    1   
9    1   
10   1   
11   1   
12   1   
13   1   
14   1   
15   1   
16   1   
17   1   
18   1   
19   1   
20   1   
21   1   
22   1   
23   1   
24   1   
25   1   
26   1   
27   1   
28   1   
29   1   
30   1   
31   1   
32   1   
33   1   
34   1   
35   1   
36   1   
37   1   
38   1   
39   1   
40   1   
41   1   
42   1   
43   1   
44   1   
45   1   
46   1   
47   1   
48   1   
49   1   
50   1   
51   1   
52   1   
53   1   
54   1   
55   1   
56   1   
57   1   
58   1   
59   1   
60   1   
61   1   
62   1   
63   1   
64   1   
65   1   
66   1   
67   1   
68   1   
69   1   
70   1   
71   1   
72   1   
73   1   
74   1   
75   1   
76   1   
77   1   
78   1   
79   1   
80   1   
81   1   
82   1   
83   1   
84   1   
85   1   
86   1   
87   1   
88   1   
89   1   
90   1   
91   1   
92   1   
93   1   
94   1   
95   1   
96   1   
97   1   
98   1   
99   1   
100  1   
101  1   
DEPOT_SECTION
1
-1
EOF
