data/CVRPLIB/Vrp-Set-XML100/solutions/XML100_2314_03.sol
Route #1: 30 11 8 9 70 3 57 7 97 92 15 39
Route #2: 95 99 91 18 67 36 89 54 96 87 44 98 13
Route #3: 33 86 51 2 50 94 63 76 59 21
Route #4: 26 88 28 83 38 55 84 69 93 34 4 65 22
Route #5: 5 81 47 75 66 12 49 58 61 19 60 100 78
Route #6: 31 56 27 85 48 73 40 82 17 74 10 72 71
Route #7: 29 32 53 79 43 6 14 25 62 20 35 37 77
Route #8: 16 90 24 80 41 1 52 42 46 68 64 45 23
Cost 10343
